# 70742
param n := 30;
param s := 1;
set E :=  (0,5) (1,7) (1,12) (2,23) (3,28) (3,29) (4,23) (5,12) (5,14) (5,21) (5,23) (5,27) (6,28) (7,10) (7,25) (8,9) (8,11) (8,18) (8,24) (9,16) (9,28) (10,15) (12,15) (12,25) (13,20) (14,16) (15,19) (17,19) (17,23) (20,22) (20,26) (22,23) (23,29);
